10	6	4.35
2 1 1 2 3 1 8 5 2 6 2
2 5 1 3 2 4 3 5 4 9 5 3 5 1 8 3 1 4 5 5 1 6 7
2 4 1 7 2 5 4 3 6 2 6 1 5 2 6 3 4 4 8 5 2 6 5
2 6 1 8 2 8 3 9 4 2 5 3 6 7 5 1 8 3 7 4 6 5 3 6 8
2 6 1 2 2 2 3 2 4 8 5 2 6 1 5 1 5 3 1 4 1 5 7 6 5
2 5 1 8 2 1 3 3 5 4 6 8 4 1 1 2 7 3 8 5 9
2 5 2 1 3 2 4 9 5 2 6 7 4 2 4 4 6 5 1 6 9
2 5 1 6 2 3 3 8 4 4 5 9 6 1 3 2 9 3 2 4 5 5 1 6 3
2 2 2 7 5 4 3 1 9 4 7 5 5
2 6 1 2 2 5 3 7 4 7 5 4 6 2 1 3 6
